12 24 6 10
8 18 19 3 16 9 7 12 6 7 1 1 7 17 3 15 18 10 6 6 19 11 18 18 
11.17 0.26 9.27 3.8 11.25 12.4 10.5 12.77 12.6 15.49 0.56 6.67 6.17 14.43 9.42 13.91 0.01 2.01 11.01 7.52 15.9 13.9 3.84 6.19 
12.5 2.06 4.97 2.79 12.28 15.15 14.85 0.07 15.53 5.33 3.23 11.63 13.25 10.16 12.92 6.84 11.54 3.52 0.38 2.36 5.34 15.52 4.93 7.25 
11.41 1.96 15.38 6.94 2.27 10.9 2.07 5.79 15.27 1.46 3.88 2.16 3.87 3.36 5.95 1.79 15.33 5.74 5.57 12.56 15.87 3.2 7.94 1.86 
11.14 1.2 6.01 13.68 3.82 14.82 11.59 13.45 8.47 0.8 4.04 6.7 3.65 2.79 12.1 4.77 5.58 2.16 9.68 11.81 15.62 1.33 14.49 15.08 
13.3 4.33 6.73 3.38 8.29 13.82 3.82 8.15 2.57 10.1 12.62 15.84 2.15 12.51 14.37 7.25 6.67 11.32 5.44 3.68 0.33 11.7 15.37 7.1 
1.88 3.07 10.03 7.41 1.81 15.44 2.01 1.26 13.35 3.09 11.77 8.89 12.82 9.85 13.41 1.47 12.38 12.63 5.42 2.56 6.02 15.8 13.62 8.59 
8 8 8 8 8 8 8 8 8 8 8 8 8 8 8 8 8 8 8 8 8 8 8 8 
14.58 13.69 2.86 13.64 4.33 9.04 6.83 0.52 11.84 1.86 0.1 0.31 3.15 5.77 9.15 13.38 11.32 0.75 7.63 7.72 15.46 14.68 3.46 8.98 
1.43 12.59 13.2 8.74 14.74 3.7 11.82 4.26 3.99 15.84 6.88 12.94 2.32 11.15 2.33 15.17 0.2 6.66 3.21 8.33 14.9 12.26 5.89 1.88 
2.64 12.14 8.3 8.45 7.64 14.98 3.29 6.49 2.09 15.29 6.79 14.51 13.57 7.89 11.49 0.97 3.49 15.92 9.23 15.75 4.39 9.7 6.59 3.26 
5.11 4.87 8.86 14.29 5.94 2.25 11.36 1.69 15.45 5.02 1.03 11.31 15.7 10.87 2.33 9.19 15.96 15.19 12.2 6.11 12.44 2.87 8.48 10.16 
4.69 15.19 10.83 15.33 12.08 11.6 12.68 8.65 3.72 12.15 7.99 2.19 2.85 4.71 3.42 6.19 10.32 13.19 14 5.64 0.68 8.69 3.28 12.8 
1 1 1 1 1 1 1 1 1 1 1 1 1 1 1 1 1 1 1 1 1 1 1 1 
1 1 1 1 1 1 1 1 1 1 1 1 1 1 1 1 1 1 1 1 1 1 1 1 
1 1 1 1 1 1 1 1 1 1 1 1 1 1 1 1 1 1 1 1 1 1 1 1 
1 1 1 1 1 1 1 1 1 1 1 1 1 1 1 1 1 1 1 1 1 1 1 1 
1 1 1 1 1 1 1 1 1 1 1 1 1 1 1 1 1 1 1 1 1 1 1 1 
1 1 1 1 1 1 1 1 1 1 1 1 1 1 1 1 1 1 1 1 1 1 1 1 
1 1 1 1 1 1 1 1 1 1 1 1 1 1 1 1 1 1 1 1 1 1 1 1 
1 1 1 1 1 1 1 1 1 1 1 1 1 1 1 1 1 1 1 1 1 1 1 1 
1 1 1 1 1 1 1 1 1 1 1 1 1 1 1 1 1 1 1 1 1 1 1 1 
1 1 1 1 1 1 1 1 1 1 1 1 1 1 1 1 1 1 1 1 1 1 1 1 
1 1 1 1 1 1 1 1 1 1 1 1 1 1 1 1 1 1 1 1 1 1 1 1 
1 1 1 1 1 1 1 1 1 1 1 1 1 1 1 1 1 1 1 1 1 1 1 1 
0.01 0.01 0.01 0.01 0.01 0.01 0.01 0.01 0.01 0.01 0.01 0.01 0.01 0.01 0.01 0.01 0.01 0.01 0.01 0.01 0.01 0.01 0.01 0.01 
0.02 0.02 0.02 0.02 0.02 0.02 0.02 0.02 0.02 0.02 0.02 0.02 0.02 0.02 0.02 0.02 0.02 0.02 0.02 0.02 0.02 0.02 0.02 0.02 
0.03 0.03 0.03 0.03 0.03 0.03 0.03 0.03 0.03 0.03 0.03 0.03 0.03 0.03 0.03 0.03 0.03 0.03 0.03 0.03 0.03 0.03 0.03 0.03 
0.04 0.04 0.04 0.04 0.04 0.04 0.04 0.04 0.04 0.04 0.04 0.04 0.04 0.04 0.04 0.04 0.04 0.04 0.04 0.04 0.04 0.04 0.04 0.04 
0.05 0.05 0.05 0.05 0.05 0.05 0.05 0.05 0.05 0.05 0.05 0.05 0.05 0.05 0.05 0.05 0.05 0.05 0.05 0.05 0.05 0.05 0.05 0.05 
0.06 0.06 0.06 0.06 0.06 0.06 0.06 0.06 0.06 0.06 0.06 0.06 0.06 0.06 0.06 0.06 0.06 0.06 0.06 0.06 0.06 0.06 0.06 0.06 
0.07 0.07 0.07 0.07 0.07 0.07 0.07 0.07 0.07 0.07 0.07 0.07 0.07 0.07 0.07 0.07 0.07 0.07 0.07 0.07 0.07 0.07 0.07 0.07 
0.2 0.2 0.2 0.2 0.2 0.2 0.2 0.2 0.2 0.2 0.2 0.2 0.2 0.2 0.2 0.2 0.2 0.2 0.2 0.2 0.2 0.2 0.2 0.2 
0.4 0.4 0.4 0.4 0.4 0.4 0.4 0.4 0.4 0.4 0.4 0.4 0.4 0.4 0.4 0.4 0.4 0.4 0.4 0.4 0.4 0.4 0.4 0.4 
0.6 0.6 0.6 0.6 0.6 0.6 0.6 0.6 0.6 0.6 0.6 0.6 0.6 0.6 0.6 0.6 0.6 0.6 0.6 0.6 0.6 0.6 0.6 0.6 
0.8 0.8 0.8 0.8 0.8 0.8 0.8 0.8 0.8 0.8 0.8 0.8 0.8 0.8 0.8 0.8 0.8 0.8 0.8 0.8 0.8 0.8 0.8 0.8 
1 1 1 1 1 1 1 1 1 1 1 1 1 1 1 1 1 1 1 1 1 1 1 1 
